1000
540 873 1
60 713 2
53 928 3
756 360 4
996 539 5
424 446 6
564 681 7
776 756 8
922 629 9
438 757 10
941 54 11
116 670 12
974 18 13
214 530 14
122 358 15
507 169 16
711 36 17
838 713 18
338 601 19
887 931 20